p cnf 184 730
67 92 99 113 0
118 125 0
62 84 88 0
81 85 159 0
79 120 122 0
91 101 110 126 129 132 0
94 127 131 134 0
45 103 112 137 0
71 77 0
66 108 0
63 65 87 96 0
59 60 83 0
55 57 0
52 80 106 115 121 0
50 64 0
47 48 49 0
43 44 74 75 0
42 68 98 114 0
72 175 0
119 139 141 142 143 0
58 86 89 0
144 145 146 0
116 150 0
152 154 0
104 111 155 0
70 78 100 0
82 156 157 158 0
147 161 162 0
53 163 0
51 117 164 0
135 165 167 0
46 76 169 0
73 97 109 170 0
172 173 176 0
177 178 0
56 105 160 179 0
149 181 0
54 151 0
130 133 182 0
166 168 0
-113 -171 0
-113 -118 0
-113 -180 0
-118 -171 0
-171 -180 0
-118 -180 0
-110 -127 0
-110 -183 0
-66 -110 0
-127 -183 0
-66 -127 0
-66 -183 0
-44 -68 0
-44 -72 0
-44 -89 0
-68 -72 0
-68 -89 0
-72 -89 0
-41 -184 0
-40 -184 0
-117 -184 0
-40 -41 0
-41 -117 0
-40 -117 0
-110 -113 0
-44 -113 0
-113 -184 0
-44 -110 0
-110 -184 0
-44 -184 0
-127 -171 0
-68 -171 0
-41 -171 0
-68 -127 0
-41 -127 0
-41 -68 0
-118 -183 0
-72 -118 0
-40 -118 0
-72 -183 0
-40 -183 0
-40 -72 0
-66 -180 0
-89 -180 0
-117 -180 0
-66 -89 0
-66 -117 0
-89 -117 0
-39 -106 0
-49 -106 0
-39 -49 0
-70 -155 0
-107 -155 0
-70 -107 0
-172 -177 0
-56 -172 0
-56 -177 0
-106 -155 0
-106 -172 0
-155 -172 0
-39 -70 0
-39 -177 0
-70 -177 0
-49 -107 0
-49 -56 0
-56 -107 0
-99 -174 0
-38 -99 0
-62 -99 0
-79 -99 0
-38 -174 0
-62 -174 0
-79 -174 0
-38 -62 0
-38 -79 0
-62 -79 0
-91 -94 0
-91 -112 0
-36 -91 0
-65 -91 0
-94 -112 0
-36 -94 0
-65 -94 0
-36 -112 0
-65 -112 0
-36 -65 0
-43 -114 0
-43 -119 0
-34 -43 0
-43 -144 0
-114 -119 0
-34 -114 0
-114 -144 0
-34 -119 0
-119 -144 0
-34 -144 0
-33 -95 0
-33 -82 0
-33 -161 0
-33 -135 0
-82 -95 0
-95 -161 0
-95 -135 0
-82 -161 0
-82 -135 0
-135 -161 0
-32 -46 0
-32 -73 0
-32 -173 0
-32 -105 0
-46 -73 0
-46 -173 0
-46 -105 0
-73 -173 0
-73 -105 0
-105 -173 0
-91 -99 0
-43 -99 0
-33 -99 0
-32 -99 0
-43 -91 0
-33 -91 0
-32 -91 0
-33 -43 0
-32 -43 0
-32 -33 0
-94 -174 0
-114 -174 0
-95 -174 0
-46 -174 0
-94 -114 0
-94 -95 0
-46 -94 0
-95 -114 0
-46 -114 0
-46 -95 0
-38 -112 0
-38 -119 0
-38 -82 0
-38 -73 0
-112 -119 0
-82 -112 0
-73 -112 0
-82 -119 0
-73 -119 0
-73 -82 0
-36 -62 0
-34 -62 0
-62 -161 0
-62 -173 0
-34 -36 0
-36 -161 0
-36 -173 0
-34 -161 0
-34 -173 0
-161 -173 0
-65 -79 0
-79 -144 0
-79 -135 0
-79 -105 0
-65 -144 0
-65 -135 0
-65 -105 0
-135 -144 0
-105 -144 0
-105 -135 0
-129 -131 0
-103 -129 0
-31 -129 0
-103 -131 0
-31 -131 0
-31 -103 0
-57 -60 0
-29 -60 0
-60 -80 0
-29 -57 0
-57 -80 0
-29 -80 0
-42 -75 0
-75 -139 0
-75 -124 0
-42 -139 0
-42 -124 0
-124 -139 0
-28 -169 0
-28 -97 0
-28 -176 0
-97 -169 0
-169 -176 0
-97 -176 0
-60 -129 0
-75 -129 0
-28 -129 0
-60 -75 0
-28 -60 0
-28 -75 0
-57 -131 0
-42 -131 0
-131 -169 0
-42 -57 0
-57 -169 0
-42 -169 0
-29 -103 0
-103 -139 0
-97 -103 0
-29 -139 0
-29 -97 0
-97 -139 0
-31 -80 0
-31 -124 0
-31 -176 0
-80 -124 0
-80 -176 0
-124 -176 0
-27 -141 0
-58 -141 0
-141 -145 0
-27 -58 0
-27 -145 0
-58 -145 0
-156 -163 0
-156 -164 0
-156 -165 0
-163 -164 0
-163 -165 0
-164 -165 0
-25 -170 0
-170 -178 0
-170 -179 0
-25 -178 0
-25 -179 0
-178 -179 0
-130 -153 0
-102 -130 0
-24 -130 0
-102 -153 0
-24 -153 0
-24 -102 0
-141 -156 0
-141 -170 0
-130 -141 0
-156 -170 0
-130 -156 0
-130 -170 0
-27 -163 0
-25 -27 0
-27 -153 0
-25 -163 0
-153 -163 0
-25 -153 0
-58 -164 0
-58 -178 0
-58 -102 0
-164 -178 0
-102 -164 0
-102 -178 0
-145 -165 0
-145 -179 0
-24 -145 0
-165 -179 0
-24 -165 0
-24 -179 0
-84 -92 0
-85 -92 0
-23 -92 0
-92 -120 0
-84 -85 0
-23 -84 0
-84 -120 0
-23 -85 0
-85 -120 0
-23 -120 0
-69 -126 0
-77 -126 0
-108 -126 0
-63 -126 0
-69 -77 0
-69 -108 0
-63 -69 0
-77 -108 0
-63 -77 0
-63 -108 0
-52 -59 0
-50 -59 0
-22 -59 0
-48 -59 0
-50 -52 0
-22 -52 0
-48 -52 0
-22 -50 0
-48 -50 0
-22 -48 0
-104 -150 0
-21 -150 0
-100 -150 0
-20 -150 0
-21 -104 0
-100 -104 0
-20 -104 0
-21 -100 0
-20 -21 0
-20 -100 0
-166 -181 0
-19 -181 0
-18 -181 0
-17 -181 0
-19 -166 0
-18 -166 0
-17 -166 0
-18 -19 0
-17 -19 0
-17 -18 0
-92 -126 0
-59 -92 0
-92 -150 0
-92 -181 0
-59 -126 0
-126 -150 0
-126 -181 0
-59 -150 0
-59 -181 0
-150 -181 0
-69 -84 0
-52 -84 0
-84 -104 0
-84 -166 0
-52 -69 0
-69 -104 0
-69 -166 0
-52 -104 0
-52 -166 0
-104 -166 0
-77 -85 0
-50 -85 0
-21 -85 0
-19 -85 0
-50 -77 0
-21 -77 0
-19 -77 0
-21 -50 0
-19 -50 0
-19 -21 0
-23 -108 0
-22 -23 0
-23 -100 0
-18 -23 0
-22 -108 0
-100 -108 0
-18 -108 0
-22 -100 0
-18 -22 0
-18 -100 0
-63 -120 0
-48 -120 0
-20 -120 0
-17 -120 0
-48 -63 0
-20 -63 0
-17 -63 0
-20 -48 0
-17 -48 0
-17 -20 0
-132 -137 0
-16 -132 0
-96 -132 0
-16 -137 0
-96 -137 0
-16 -96 0
-15 -83 0
-83 -121 0
-47 -83 0
-15 -121 0
-15 -47 0
-47 -121 0
-74 -142 0
-14 -74 0
-74 -146 0
-14 -142 0
-142 -146 0
-14 -146 0
-13 -157 0
-13 -162 0
-13 -167 0
-157 -162 0
-157 -167 0
-162 -167 0
-83 -132 0
-74 -132 0
-13 -132 0
-74 -83 0
-13 -83 0
-13 -74 0
-15 -137 0
-137 -142 0
-137 -157 0
-15 -142 0
-15 -157 0
-142 -157 0
-16 -121 0
-14 -16 0
-16 -162 0
-14 -121 0
-121 -162 0
-14 -162 0
-47 -96 0
-96 -146 0
-96 -167 0
-47 -146 0
-47 -167 0
-146 -167 0
-125 -138 0
-12 -138 0
-88 -138 0
-138 -159 0
-138 -148 0
-12 -125 0
-88 -125 0
-125 -159 0
-125 -148 0
-12 -88 0
-12 -159 0
-12 -148 0
-88 -159 0
-88 -148 0
-148 -159 0
-11 -55 0
-10 -55 0
-55 -115 0
-55 -64 0
-9 -55 0
-10 -11 0
-11 -115 0
-11 -64 0
-9 -11 0
-10 -115 0
-10 -64 0
-9 -10 0
-64 -115 0
-9 -115 0
-9 -64 0
-98 -175 0
-98 -143 0
-37 -98 0
-61 -98 0
-86 -98 0
-143 -175 0
-37 -175 0
-61 -175 0
-86 -175 0
-37 -143 0
-61 -143 0
-86 -143 0
-37 -61 0
-37 -86 0
-61 -86 0
-90 -93 0
-90 -152 0
-90 -111 0
-35 -90 0
-78 -90 0
-93 -152 0
-93 -111 0
-35 -93 0
-78 -93 0
-111 -152 0
-35 -152 0
-78 -152 0
-35 -111 0
-78 -111 0
-35 -78 0
-7 -8 0
-8 -158 0
-8 -147 0
-8 -53 0
-8 -51 0
-7 -158 0
-7 -147 0
-7 -53 0
-7 -51 0
-147 -158 0
-53 -158 0
-51 -158 0
-53 -147 0
-51 -147 0
-51 -53 0
-6 -151 0
-133 -151 0
-151 -168 0
-5 -151 0
-136 -151 0
-6 -133 0
-6 -168 0
-5 -6 0
-6 -136 0
-133 -168 0
-5 -133 0
-133 -136 0
-5 -168 0
-136 -168 0
-5 -136 0
-55 -138 0
-98 -138 0
-90 -138 0
-8 -138 0
-138 -151 0
-55 -98 0
-55 -90 0
-8 -55 0
-55 -151 0
-90 -98 0
-8 -98 0
-98 -151 0
-8 -90 0
-90 -151 0
-8 -151 0
-11 -125 0
-125 -175 0
-93 -125 0
-7 -125 0
-6 -125 0
-11 -175 0
-11 -93 0
-7 -11 0
-6 -11 0
-93 -175 0
-7 -175 0
-6 -175 0
-7 -93 0
-6 -93 0
-6 -7 0
-10 -12 0
-12 -143 0
-12 -152 0
-12 -158 0
-12 -133 0
-10 -143 0
-10 -152 0
-10 -158 0
-10 -133 0
-143 -152 0
-143 -158 0
-133 -143 0
-152 -158 0
-133 -152 0
-133 -158 0
-88 -115 0
-37 -88 0
-88 -111 0
-88 -147 0
-88 -168 0
-37 -115 0
-111 -115 0
-115 -147 0
-115 -168 0
-37 -111 0
-37 -147 0
-37 -168 0
-111 -147 0
-111 -168 0
-147 -168 0
-64 -159 0
-61 -159 0
-35 -159 0
-53 -159 0
-5 -159 0
-61 -64 0
-35 -64 0
-53 -64 0
-5 -64 0
-35 -61 0
-53 -61 0
-5 -61 0
-35 -53 0
-5 -35 0
-5 -53 0
-9 -148 0
-86 -148 0
-78 -148 0
-51 -148 0
-136 -148 0
-9 -86 0
-9 -78 0
-9 -51 0
-9 -136 0
-78 -86 0
-51 -86 0
-86 -136 0
-51 -78 0
-78 -136 0
-51 -136 0
-67 -140 0
-26 -67 0
-67 -81 0
-67 -122 0
-26 -140 0
-81 -140 0
-122 -140 0
-26 -81 0
-26 -122 0
-81 -122 0
-101 -134 0
-45 -101 0
-71 -101 0
-87 -101 0
-45 -134 0
-71 -134 0
-87 -134 0
-45 -71 0
-45 -87 0
-71 -87 0
-116 -128 0
-116 -154 0
-30 -116 0
-4 -116 0
-128 -154 0
-30 -128 0
-4 -128 0
-30 -154 0
-4 -154 0
-4 -30 0
-3 -76 0
-3 -109 0
-3 -123 0
-3 -160 0
-76 -109 0
-76 -123 0
-76 -160 0
-109 -123 0
-109 -160 0
-123 -160 0
-54 -149 0
-149 -182 0
-2 -149 0
-1 -149 0
-54 -182 0
-2 -54 0
-1 -54 0
-2 -182 0
-1 -182 0
-1 -2 0
-67 -101 0
-67 -116 0
-3 -67 0
-67 -149 0
-101 -116 0
-3 -101 0
-101 -149 0
-3 -116 0
-116 -149 0
-3 -149 0
-134 -140 0
-128 -140 0
-76 -140 0
-54 -140 0
-128 -134 0
-76 -134 0
-54 -134 0
-76 -128 0
-54 -128 0
-54 -76 0
-26 -45 0
-26 -154 0
-26 -109 0
-26 -182 0
-45 -154 0
-45 -109 0
-45 -182 0
-109 -154 0
-154 -182 0
-109 -182 0
-71 -81 0
-30 -81 0
-81 -123 0
-2 -81 0
-30 -71 0
-71 -123 0
-2 -71 0
-30 -123 0
-2 -30 0
-2 -123 0
-87 -122 0
-4 -122 0
-122 -160 0
-1 -122 0
-4 -87 0
-87 -160 0
-1 -87 0
-4 -160 0
-1 -4 0
-1 -160 0
